* ENCODING=ISO-8859-1
NAME          miblp_20_20_50_0110_15_5
ROWS
 N  OBJROW  
 G  R0000000
 G  R0000001
 G  R0000002
 G  R0000003
 G  R0000004
 G  R0000005
 G  R0000006
 G  R0000007
 G  R0000008
 G  R0000009
 G  R0000010
 G  R0000011
 G  R0000012
 G  R0000013
 G  R0000014
 G  R0000015
 G  R0000016
 G  R0000017
 G  R0000018
 G  R0000019
COLUMNS
    MARK0000  'MARKER'                 'INTORG'
    C0000000  OBJROW                         16
    C0000000  R0000000                      -26
    C0000000  R0000001                      -41
    C0000000  R0000003                      -14
    C0000000  R0000004                      -50
    C0000000  R0000005                      -37
    C0000000  R0000006                      -48
    C0000000  R0000007                      -10
    C0000000  R0000008                      -23
    C0000000  R0000009                      -23
    C0000000  R0000015                      -18
    C0000000  R0000016                       -4
    C0000000  R0000017                      -16
    C0000000  R0000018                      -23
    C0000001  OBJROW                          4
    C0000001  R0000001                      -32
    C0000001  R0000003                      -37
    C0000001  R0000004                      -34
    C0000001  R0000005                      -14
    C0000001  R0000006                      -36
    C0000001  R0000007                       -3
    C0000001  R0000011                      -23
    C0000001  R0000013                      -22
    C0000001  R0000015                      -40
    C0000001  R0000016                       -6
    C0000001  R0000019                      -35
    C0000002  OBJROW                          9
    C0000002  R0000000                      -10
    C0000002  R0000001                      -16
    C0000002  R0000002                      -13
    C0000002  R0000003                      -18
    C0000002  R0000004                      -25
    C0000002  R0000006                      -49
    C0000002  R0000007                      -38
    C0000002  R0000008                      -41
    C0000002  R0000009                      -39
    C0000002  R0000012                      -19
    C0000002  R0000014                      -47
    C0000002  R0000015                       -9
    C0000002  R0000016                       -8
    C0000002  R0000017                       -8
    C0000002  R0000019                       -9
    C0000003  OBJROW                         41
    C0000003  R0000000                      -44
    C0000003  R0000001                      -48
    C0000003  R0000003                      -11
    C0000003  R0000004                      -44
    C0000003  R0000007                      -40
    C0000003  R0000008                      -46
    C0000003  R0000011                      -19
    C0000003  R0000016                      -33
    C0000003  R0000019                      -14
    C0000004  OBJROW                         -3
    C0000004  R0000000                      -11
    C0000004  R0000004                      -14
    C0000004  R0000005                      -33
    C0000004  R0000006                      -36
    C0000004  R0000007                      -24
    C0000004  R0000009                       -7
    C0000004  R0000012                      -34
    C0000004  R0000014                       -3
    C0000004  R0000015                      -28
    C0000004  R0000016                      -45
    C0000004  R0000017                       -3
    C0000004  R0000018                      -18
    C0000004  R0000019                      -21
    C0000005  OBJROW                        -10
    C0000005  R0000000                      -34
    C0000005  R0000002                      -30
    C0000005  R0000003                       -3
    C0000005  R0000004                       -7
    C0000005  R0000005                      -47
    C0000005  R0000006                      -47
    C0000005  R0000007                      -49
    C0000005  R0000008                       -5
    C0000005  R0000011                      -14
    C0000005  R0000012                      -36
    C0000005  R0000013                       -1
    C0000005  R0000015                      -13
    C0000005  R0000017                      -49
    C0000005  R0000018                      -34
    C0000005  R0000019                      -37
    C0000006  OBJROW                         42
    C0000006  R0000000                      -43
    C0000006  R0000004                      -15
    C0000006  R0000005                      -32
    C0000006  R0000006                      -47
    C0000006  R0000007                      -47
    C0000006  R0000008                       -1
    C0000006  R0000009                      -48
    C0000006  R0000012                       -8
    C0000006  R0000015                      -37
    C0000006  R0000016                      -11
    C0000006  R0000019                      -31
    C0000007  OBJROW                        -26
    C0000007  R0000000                      -38
    C0000007  R0000002                      -29
    C0000007  R0000003                      -48
    C0000007  R0000004                      -29
    C0000007  R0000007                      -20
    C0000007  R0000009                      -10
    C0000007  R0000010                       -3
    C0000007  R0000012                      -30
    C0000007  R0000013                      -26
    C0000007  R0000015                      -13
    C0000007  R0000016                      -34
    C0000007  R0000017                      -37
    C0000007  R0000018                      -28
    C0000007  R0000019                      -36
    C0000008  OBJROW                        -41
    C0000008  R0000000                      -45
    C0000008  R0000002                      -11
    C0000008  R0000004                      -29
    C0000008  R0000006                      -49
    C0000008  R0000007                       -5
    C0000008  R0000009                       -8
    C0000008  R0000010                      -32
    C0000008  R0000011                      -46
    C0000008  R0000012                      -28
    C0000008  R0000013                      -22
    C0000008  R0000014                      -16
    C0000008  R0000015                      -33
    C0000008  R0000016                      -34
    C0000008  R0000017                      -15
    C0000008  R0000019                      -27
    C0000009  OBJROW                         43
    C0000009  R0000000                      -32
    C0000009  R0000001                      -16
    C0000009  R0000002                      -46
    C0000009  R0000003                      -35
    C0000009  R0000005                       -4
    C0000009  R0000006                      -41
    C0000009  R0000007                       -6
    C0000009  R0000008                       -8
    C0000009  R0000009                      -49
    C0000009  R0000012                      -11
    C0000009  R0000014                      -49
    C0000009  R0000015                       -4
    C0000009  R0000016                       -2
    C0000009  R0000019                      -28
    C0000010  OBJROW                         32
    C0000010  R0000000                      -41
    C0000010  R0000001                       -8
    C0000010  R0000003                       -3
    C0000010  R0000004                       -9
    C0000010  R0000005                      -11
    C0000010  R0000006                      -36
    C0000010  R0000007                      -47
    C0000010  R0000008                      -33
    C0000010  R0000009                      -11
    C0000010  R0000010                      -10
    C0000010  R0000011                       -7
    C0000010  R0000012                      -26
    C0000010  R0000013                      -31
    C0000010  R0000014                      -30
    C0000010  R0000015                      -50
    C0000010  R0000016                       -2
    C0000010  R0000017                      -36
    C0000010  R0000018                      -47
    C0000010  R0000019                       -7
    C0000011  OBJROW                         27
    C0000011  R0000000                      -48
    C0000011  R0000001                      -41
    C0000011  R0000002                      -38
    C0000011  R0000003                       -2
    C0000011  R0000004                      -21
    C0000011  R0000006                      -33
    C0000011  R0000007                       -3
    C0000011  R0000008                      -43
    C0000011  R0000009                       -8
    C0000011  R0000014                      -39
    C0000011  R0000016                      -37
    C0000011  R0000017                      -17
    C0000011  R0000018                      -50
    C0000011  R0000019                       -5
    C0000012  OBJROW                         42
    C0000012  R0000000                      -11
    C0000012  R0000003                       -8
    C0000012  R0000004                       -8
    C0000012  R0000005                       -8
    C0000012  R0000006                      -24
    C0000012  R0000007                      -38
    C0000012  R0000009                       -6
    C0000012  R0000010                      -35
    C0000012  R0000011                       -9
    C0000012  R0000012                       -7
    C0000012  R0000014                      -30
    C0000012  R0000015                      -18
    C0000012  R0000016                      -33
    C0000012  R0000017                      -19
    C0000012  R0000018                      -36
    C0000012  R0000019                      -39
    C0000013  OBJROW                        -37
    C0000013  R0000002                       -1
    C0000013  R0000003                      -29
    C0000013  R0000004                      -29
    C0000013  R0000005                      -49
    C0000013  R0000007                      -46
    C0000013  R0000008                      -10
    C0000013  R0000009                      -29
    C0000013  R0000010                      -30
    C0000013  R0000011                      -30
    C0000013  R0000013                       -3
    C0000013  R0000015                      -15
    C0000013  R0000017                       -9
    C0000013  R0000018                      -45
    C0000014  OBJROW                         18
    C0000014  R0000000                      -23
    C0000014  R0000001                       -3
    C0000014  R0000002                      -50
    C0000014  R0000003                      -21
    C0000014  R0000004                       -8
    C0000014  R0000005                      -46
    C0000014  R0000006                       -2
    C0000014  R0000007                      -28
    C0000014  R0000009                       -9
    C0000014  R0000011                       -1
    C0000014  R0000012                      -38
    C0000014  R0000013                      -49
    C0000014  R0000014                      -34
    C0000014  R0000015                      -40
    C0000014  R0000016                      -50
    C0000014  R0000017                      -43
    C0000015  OBJROW                        -21
    C0000015  R0000000                      -43
    C0000015  R0000003                      -26
    C0000015  R0000004                       -8
    C0000015  R0000005                      -30
    C0000015  R0000007                      -36
    C0000015  R0000008                      -30
    C0000015  R0000011                      -14
    C0000015  R0000012                      -10
    C0000015  R0000014                      -38
    C0000015  R0000015                       -5
    C0000015  R0000016                      -39
    C0000015  R0000018                       -8
    C0000015  R0000019                      -33
    C0000016  OBJROW                         44
    C0000016  R0000000                      -47
    C0000016  R0000003                      -19
    C0000016  R0000004                      -37
    C0000016  R0000005                      -44
    C0000016  R0000006                      -49
    C0000016  R0000007                       -1
    C0000016  R0000008                      -46
    C0000016  R0000010                      -19
    C0000016  R0000011                       -9
    C0000016  R0000012                      -43
    C0000016  R0000014                      -49
    C0000016  R0000016                      -10
    C0000016  R0000017                      -45
    C0000016  R0000018                      -31
    C0000016  R0000019                      -31
    C0000017  OBJROW                         37
    C0000017  R0000000                       -2
    C0000017  R0000001                      -19
    C0000017  R0000003                      -42
    C0000017  R0000005                      -23
    C0000017  R0000006                      -46
    C0000017  R0000007                      -50
    C0000017  R0000008                      -13
    C0000017  R0000009                      -32
    C0000017  R0000010                      -33
    C0000017  R0000011                      -26
    C0000017  R0000012                      -26
    C0000017  R0000015                      -38
    C0000017  R0000016                       -8
    C0000017  R0000017                       -7
    C0000017  R0000018                      -15
    C0000017  R0000019                      -25
    C0000018  OBJROW                         39
    C0000018  R0000000                       -7
    C0000018  R0000001                      -13
    C0000018  R0000002                       -7
    C0000018  R0000003                      -35
    C0000018  R0000004                      -20
    C0000018  R0000005                      -12
    C0000018  R0000006                      -18
    C0000018  R0000007                      -39
    C0000018  R0000008                       -2
    C0000018  R0000010                      -38
    C0000018  R0000011                       -1
    C0000018  R0000013                      -19
    C0000018  R0000014                      -30
    C0000018  R0000015                      -37
    C0000018  R0000016                      -34
    C0000018  R0000017                       -5
    C0000018  R0000018                      -40
    C0000019  OBJROW                          6
    C0000019  R0000003                      -10
    C0000019  R0000004                      -11
    C0000019  R0000005                      -48
    C0000019  R0000006                      -31
    C0000019  R0000007                       -7
    C0000019  R0000008                      -14
    C0000019  R0000011                      -35
    C0000019  R0000014                      -12
    C0000019  R0000015                      -26
    C0000019  R0000016                      -49
    C0000019  R0000017                      -28
    C0000019  R0000018                      -35
    C0000019  R0000019                      -38
    MARK0001  'MARKER'                 'INTEND'
RHS
    rhs       R0000000                     -931
    rhs       R0000001                     -216
    rhs       R0000002                     -612
    rhs       R0000003                     -649
    rhs       R0000004                     -763
    rhs       R0000005                     -955
    rhs       R0000006                    -1162
    rhs       R0000007                    -1038
    rhs       R0000008                     -481
    rhs       R0000009                     -673
    rhs       R0000010                     -535
    rhs       R0000011                     -599
    rhs       R0000012                     -653
    rhs       R0000013                     -413
    rhs       R0000014                     -876
    rhs       R0000015                     -839
    rhs       R0000016                     -964
    rhs       R0000017                     -799
    rhs       R0000018                     -839
    rhs       R0000019                     -807
BOUNDS
 UP bnd       C0000000                     1500
 UP bnd       C0000001                     1500
 UP bnd       C0000002                     1500
 UP bnd       C0000003                     1500
 UP bnd       C0000004                     1500
 UP bnd       C0000005                     1500
 UP bnd       C0000006                     1500
 UP bnd       C0000007                     1500
 UP bnd       C0000008                     1500
 UP bnd       C0000009                     1500
 UP bnd       C0000010                     1500
 UP bnd       C0000011                     1500
 UP bnd       C0000012                     1500
 UP bnd       C0000013                     1500
 UP bnd       C0000014                     1500
 UP bnd       C0000015                     1500
 UP bnd       C0000016                     1500
 UP bnd       C0000017                     1500
 UP bnd       C0000018                     1500
 UP bnd       C0000019                     1500
ENDATA
